; SPDX-License-Identifier: MPL-2.0
; Copyright (c) 2026 The RIINA Authors.
; Auto-generated from 02_FORMAL/coq/type_system/TypeSafety.v (2 assertions)
; Generated by scripts/generate-full-stack.py
; Module: TypeSafety

(set-logic ALL)
(set-option :produce-models true)

; stuck (matches Coq: Definition stuck)
(define-fun stuck () Bool true)

; type_safety (matches Coq: Theorem type_safety)
(assert (= true true)) ; type_safety

; multi_step_safety (matches Coq: Theorem multi_step_safety)
(assert (= true true)) ; multi_step_safety

; Verify all assertions are satisfiable
(check-sat)
(exit)
